caseWidth=10;
caseHeight=10;
caseCapacity=100;
n=20;
price=[95 20 52 34 62 6 34 84 33 84 85 80 34 72 76 20 81 3 28 83];
weight=[13 13 8 6 11 3 1 18 18 6 14 14 18 6 14 5 9 17 16 16];
side=[1 4 2 2 3 3 2 4 1 3 2 1 3 2 3 1 3 1 4 2];
